NAME          
ROWS
 N  OBJ
 L  c1
 L  c2
 L  c3
COLUMNS
    MARKER    'MARKER'                 'INTORG'
    x[1]      c1        837
    x[1]      c2        519
    x[1]      c3        877
    x[1]      OBJ       -92
    x[2]      c1        330
    x[2]      c2        254
    x[2]      c3        798
    x[2]      OBJ       -188
    x[3]      c1        564
    x[3]      c2        269
    x[3]      c3        322
    x[3]      OBJ       -281
    x[4]      c1        691
    x[4]      c2        553
    x[4]      c3        218
    x[4]      OBJ       -646
    x[5]      c1        850
    x[5]      c2        291
    x[5]      c3        270
    x[5]      OBJ       -338
    x[6]      c1        491
    x[6]      c2        749
    x[6]      c3        19
    x[6]      OBJ       -232
    x[7]      c1        188
    x[7]      c2        844
    x[7]      c3        938
    x[7]      OBJ       -729
    x[8]      c1        721
    x[8]      c2        43
    x[8]      c3        995
    x[8]      OBJ       -215
    x[9]      c1        126
    x[9]      c2        724
    x[9]      c3        87
    x[9]      OBJ       -971
    x[10]     c1        540
    x[10]     c2        538
    x[10]     c3        47
    x[10]     OBJ       -914
    x[11]     c1        734
    x[11]     c2        467
    x[11]     c3        5
    x[11]     OBJ       -628
    x[12]     c1        641
    x[12]     c2        236
    x[12]     c3        549
    x[12]     OBJ       -830
    x[13]     c1        30
    x[13]     c2        472
    x[13]     c3        599
    x[13]     OBJ       -86
    x[14]     c1        532
    x[14]     c2        299
    x[14]     c3        966
    x[14]     OBJ       -347
    x[15]     c1        312
    x[15]     c2        316
    x[15]     c3        974
    x[15]     OBJ       -87
    x[16]     c1        833
    x[16]     c2        310
    x[16]     c3        746
    x[16]     OBJ       -565
    x[17]     c1        544
    x[17]     c2        783
    x[17]     c3        137
    x[17]     OBJ       -494
    x[18]     c1        655
    x[18]     c2        518
    x[18]     c3        276
    x[18]     OBJ       -167
    x[19]     c1        51
    x[19]     c2        398
    x[19]     c3        301
    x[19]     OBJ       -870
    x[20]     c1        90
    x[20]     c2        155
    x[20]     c3        861
    x[20]     OBJ       -826
    x[21]     c1        745
    x[21]     c2        843
    x[21]     c3        424
    x[21]     OBJ       -381
    x[22]     c1        32
    x[22]     c2        294
    x[22]     c3        718
    x[22]     OBJ       -460
    x[23]     c1        595
    x[23]     c2        260
    x[23]     c3        717
    x[23]     OBJ       -508
    x[24]     c1        99
    x[24]     c2        640
    x[24]     c3        651
    x[24]     OBJ       -41
    x[25]     c1        773
    x[25]     c2        157
    x[25]     c3        632
    x[25]     OBJ       -737
    x[26]     c1        990
    x[26]     c2        318
    x[26]     c3        463
    x[26]     OBJ       -967
    x[27]     c1        343
    x[27]     c2        700
    x[27]     c3        398
    x[27]     OBJ       -98
    x[28]     c1        300
    x[28]     c2        175
    x[28]     c3        576
    x[28]     OBJ       -605
    x[29]     c1        844
    x[29]     c2        436
    x[29]     c3        738
    x[29]     OBJ       -215
    x[30]     c1        170
    x[30]     c2        307
    x[30]     c3        233
    x[30]     OBJ       -134
    x[31]     c1        574
    x[31]     c2        728
    x[31]     c3        31
    x[31]     OBJ       -883
    x[32]     c1        139
    x[32]     c2        958
    x[32]     c3        265
    x[32]     OBJ       -674
    x[33]     c1        873
    x[33]     c2        655
    x[33]     c3        931
    x[33]     OBJ       -98
    x[34]     c1        121
    x[34]     c2        522
    x[34]     c3        107
    x[34]     OBJ       -348
    x[35]     c1        933
    x[35]     c2        717
    x[35]     c3        358
    x[35]     OBJ       -264
    x[36]     c1        977
    x[36]     c2        998
    x[36]     c3        387
    x[36]     OBJ       -260
    x[37]     c1        119
    x[37]     c2        49
    x[37]     c3        350
    x[37]     OBJ       -624
    x[38]     c1        458
    x[38]     c2        837
    x[38]     c3        526
    x[38]     OBJ       -840
    x[39]     c1        605
    x[39]     c2        635
    x[39]     c3        287
    x[39]     OBJ       -363
    x[40]     c1        304
    x[40]     c2        238
    x[40]     c3        466
    x[40]     OBJ       -389
RHS
    rhs       c1        9877
    rhs       c2        9602
    rhs       c3        9622
RANGES
BOUNDS
 BV bounds    x[1]
 BV bounds    x[2]
 BV bounds    x[3]
 BV bounds    x[4]
 BV bounds    x[5]
 BV bounds    x[6]
 BV bounds    x[7]
 BV bounds    x[8]
 BV bounds    x[9]
 BV bounds    x[10]
 BV bounds    x[11]
 BV bounds    x[12]
 BV bounds    x[13]
 BV bounds    x[14]
 BV bounds    x[15]
 BV bounds    x[16]
 BV bounds    x[17]
 BV bounds    x[18]
 BV bounds    x[19]
 BV bounds    x[20]
 BV bounds    x[21]
 BV bounds    x[22]
 BV bounds    x[23]
 BV bounds    x[24]
 BV bounds    x[25]
 BV bounds    x[26]
 BV bounds    x[27]
 BV bounds    x[28]
 BV bounds    x[29]
 BV bounds    x[30]
 BV bounds    x[31]
 BV bounds    x[32]
 BV bounds    x[33]
 BV bounds    x[34]
 BV bounds    x[35]
 BV bounds    x[36]
 BV bounds    x[37]
 BV bounds    x[38]
 BV bounds    x[39]
 BV bounds    x[40]
ENDATA
